OBJSENSE
 MAX
ROWS
 N  OBJ
 L  ROW1
 L  ROW2
COLUMNS
    CLNAM1    OBJ                1.0
    CLNAM1    ROW1               2.0
    CLNAM2    OBJ               -1.0
    CLNAM2    ROW2               4.0
    CLNAM3    OBJ                1.0
    CLNAM3    ROW1               3.0
    CLNAM3    ROW2               5.0
RHS
    RHS1      ROW1              10.0
    RHS1      ROW2              20.0
BOUNDS
 UP BV1       CLNAM1           100.0
 FR BV1       CLNAM3
ENDATA
